decision_x1=[0,4];
decision_x2=[0,4];
decision_x3=[0,4];
decision_x4=[0,4];
decision_x5=[0,4];
decision_x6=[0,4];
decision_x7=[0,4];
decision_x8=[0,4];
decision_x9=[0,4];
decision_x10=[0,4];
random_y1=[0,4];
random_y2=[0,4];
random_y3=[0,4];
random_y4=[0,4];
random_y5=[0,4];
constraint_x3_x2=[
0,1,3.8|
0,2,8.7|
0,3,3.3|
0,4,4.1|
1,0,5.6|
1,2,0.82|
1,3,8.9|
1,4,7.9|
2,0,0.23|
2,1,4.9|
2,3,0.68|
2,4,5.4|
3,0,9|
3,1,2.7|
3,2,8.6|
3,4,7.1|
4,0,1.6|
4,1,4.1|
4,2,5.9|
4,3,7.4|
];
constraint_x4_x3=[
0,1,1.1|
0,2,1.9|
0,3,9.5|
0,4,9|
1,0,3.3|
1,2,7.8|
1,3,4.4|
1,4,6.1|
2,0,8.1|
2,1,2.6|
2,3,5.7|
2,4,7.5|
3,0,4.3|
3,1,9|
3,2,1.5|
3,4,2|
4,0,1.2|
4,1,6.1|
4,2,4.4|
4,3,5.3|
];
constraint_x5_x4=[
0,1,4.5|
0,2,0.033|
0,3,6.1|
0,4,5.2|
1,0,3.3|
1,2,6.3|
1,3,8.4|
1,4,6.9|
2,0,9.3|
2,1,6.3|
2,3,3.8|
2,4,1.5|
3,0,6.3|
3,1,1.9|
3,2,1.2|
3,4,4.4|
4,0,2.9|
4,1,4.3|
4,2,0.9|
4,3,9.4|
];
constraint_x6_x2=[
0,1,6.5|
0,2,2.6|
0,3,4.1|
0,4,4.6|
1,0,9.7|
1,2,2.2|
1,3,8.8|
1,4,5|
2,0,1.1|
2,1,4.5|
2,3,4.1|
2,4,6.2|
3,0,5.3|
3,1,8.7|
3,2,4.1|
3,4,3.1|
4,0,5|
4,1,8.2|
4,2,8.2|
4,3,5.8|
];
constraint_x6_x3=[
0,1,5|
0,2,5.7|
0,3,0.18|
0,4,8.2|
1,0,1.3|
1,2,3.4|
1,3,3.2|
1,4,1.3|
2,0,5.1|
2,1,1.5|
2,3,4.1|
2,4,0.4|
3,0,4.1|
3,1,4|
3,2,3.6|
3,4,0.71|
4,0,0.21|
4,1,1.4|
4,2,4.8|
4,3,1.5|
];
constraint_x6_x4=[
0,1,1.9|
0,2,9.1|
0,3,7.1|
0,4,9.3|
1,0,3.9|
1,2,7|
1,3,0.53|
1,4,1.5|
2,0,4.4|
2,1,1.8|
2,3,9.5|
2,4,7|
3,0,7.7|
3,1,5.3|
3,2,7|
3,4,4.3|
4,0,5.1|
4,1,0.16|
4,2,1.7|
4,3,2.5|
];
constraint_x6_x5=[
0,1,6.4|
0,2,0.18|
0,3,4.2|
0,4,1.5|
1,0,2.7|
1,2,6|
1,3,3.3|
1,4,6.6|
2,0,8.7|
2,1,9.9|
2,3,7.1|
2,4,4.2|
3,0,2.5|
3,1,6.1|
3,2,1.7|
3,4,6|
4,0,3.7|
4,1,8.9|
4,2,1.8|
4,3,4.1|
];
constraint_x7_x5=[
0,1,5|
0,2,8.4|
0,3,9.4|
0,4,8.5|
1,0,5.4|
1,2,7.1|
1,3,4.3|
1,4,5.6|
2,0,4.2|
2,1,1.7|
2,3,2.7|
2,4,3.3|
3,0,5.8|
3,1,0.67|
3,2,6.1|
3,4,1.2|
4,0,1.2|
4,1,2.9|
4,2,1.5|
4,3,0.66|
];
constraint_x7_x6=[
0,1,8.4|
0,2,0.55|
0,3,2.8|
0,4,9.3|
1,0,4|
1,2,3.4|
1,3,3.6|
1,4,9.4|
2,0,1|
2,1,1.5|
2,3,1.2|
2,4,5.1|
3,0,9.8|
3,1,0.16|
3,2,0.53|
3,4,3.2|
4,0,3.6|
4,1,7.9|
4,2,0.31|
4,3,0.56|
];
constraint_x8_x1=[
0,1,3.7|
0,2,7.2|
0,3,8.3|
0,4,0.16|
1,0,2.2|
1,2,1.9|
1,3,4.4|
1,4,9.2|
2,0,0.47|
2,1,4.9|
2,3,3.3|
2,4,5.7|
3,0,9.1|
3,1,6.8|
3,2,8.2|
3,4,2.6|
4,0,7.8|
4,1,2.4|
4,2,3.4|
4,3,6.5|
];
constraint_x8_x2=[
0,1,6.5|
0,2,3.2|
0,3,1.2|
0,4,3.6|
1,0,5.6|
1,2,8.5|
1,3,9.8|
1,4,8.5|
2,0,4.9|
2,1,7.3|
2,3,8.4|
2,4,6.9|
3,0,7.1|
3,1,6.4|
3,2,4.2|
3,4,3.7|
4,0,7.5|
4,1,2.8|
4,2,0.96|
4,3,4.7|
];
constraint_x8_x5=[
0,1,4.4|
0,2,3.8|
0,3,2|
0,4,0.68|
1,0,0.12|
1,2,0.59|
1,3,0.4|
1,4,8|
2,0,7.6|
2,1,7.7|
2,3,2.9|
2,4,0.76|
3,0,0.53|
3,1,3|
3,2,0.73|
3,4,4.5|
4,0,4|
4,1,9.5|
4,2,5.4|
4,3,0.028|
];
constraint_x9_x1=[
0,1,3.2|
0,2,1.9|
0,3,6.3|
0,4,8.3|
1,0,8.2|
1,2,3|
1,3,1.6|
1,4,7.8|
2,0,1.6|
2,1,9.5|
2,3,4.9|
2,4,6.4|
3,0,8.6|
3,1,8.3|
3,2,2.7|
3,4,7.1|
4,0,3|
4,1,6.6|
4,2,4.4|
4,3,4.1|
];
constraint_x9_x2=[
0,1,8.1|
0,2,3.6|
0,3,5.7|
0,4,5.8|
1,0,0.82|
1,2,8.2|
1,3,6|
1,4,0.4|
2,0,4.8|
2,1,1.1|
2,3,3.5|
2,4,1.7|
3,0,4.8|
3,1,8|
3,2,3.6|
3,4,3.4|
4,0,7.1|
4,1,0.78|
4,2,9.5|
4,3,2.9|
];
constraint_x9_x4=[
0,1,3.2|
0,2,1.1|
0,3,0.91|
0,4,3.3|
1,0,5.4|
1,2,4.6|
1,3,8.9|
1,4,9.4|
2,0,4.8|
2,1,0.6|
2,3,0.68|
2,4,9.6|
3,0,9.3|
3,1,9.2|
3,2,6.1|
3,4,8.7|
4,0,9.7|
4,1,6.2|
4,2,4.6|
4,3,5.1|
];
constraint_x9_x6=[
0,1,3.6|
0,2,8.3|
0,3,8.3|
0,4,2.1|
1,0,0.52|
1,2,1.4|
1,3,0.026|
1,4,6.7|
2,0,6.3|
2,1,7.9|
2,3,3.5|
2,4,5.3|
3,0,8|
3,1,3.1|
3,2,8.2|
3,4,3.2|
4,0,3.5|
4,1,0.28|
4,2,10|
4,3,0.027|
];
constraint_x10_x1=[
0,1,3.6|
0,2,3.2|
0,3,5.9|
0,4,1.8|
1,0,3|
1,2,3.7|
1,3,2.4|
1,4,0.84|
2,0,8|
2,1,3.8|
2,3,1.6|
2,4,7.3|
3,0,7.5|
3,1,5.3|
3,2,9.4|
3,4,5.3|
4,0,1.1|
4,1,2.3|
4,2,5.4|
4,3,1.8|
];
constraint_x10_x2=[
0,1,2.9|
0,2,4.3|
0,3,5|
0,4,2.3|
1,0,7.4|
1,2,8.3|
1,3,5.5|
1,4,0.84|
2,0,0.19|
2,1,6.4|
2,3,6|
2,4,7.8|
3,0,3.9|
3,1,3.8|
3,2,1.6|
3,4,0.95|
4,0,9.1|
4,1,5.9|
4,2,5|
4,3,9|
];
constraint_x10_x3=[
0,1,6.2|
0,2,1.1|
0,3,3.1|
0,4,3.4|
1,0,5.4|
1,2,0.5|
1,3,2.1|
1,4,6.4|
2,0,4.8|
2,1,8.2|
2,3,3.1|
2,4,0.63|
3,0,0.96|
3,1,2.7|
3,2,8.1|
3,4,1.1|
4,0,3|
4,1,9.9|
4,2,1.2|
4,3,1.9|
];
constraint_x10_x4=[
0,1,7.8|
0,2,9.7|
0,3,2.5|
0,4,3.5|
1,0,3.7|
1,2,2.7|
1,3,8.2|
1,4,5.6|
2,0,9.3|
2,1,1.7|
2,3,9.8|
2,4,5.1|
3,0,9.3|
3,1,0.051|
3,2,1.4|
3,4,7.3|
4,0,9.8|
4,1,2.2|
4,2,6.5|
4,3,7.1|
];
constraint_x10_x6=[
0,1,4.2|
0,2,1.8|
0,3,0.29|
0,4,7.1|
1,0,2.3|
1,2,6.9|
1,3,3.7|
1,4,8.7|
2,0,5.7|
2,1,3.3|
2,3,0.58|
2,4,3.1|
3,0,3.8|
3,1,0.34|
3,2,3.3|
3,4,9.1|
4,0,5.5|
4,1,5.6|
4,2,8.6|
4,3,6.9|
];
constraint_x10_x7=[
0,1,5.4|
0,2,8.9|
0,3,8|
0,4,7|
1,0,0.81|
1,2,3|
1,3,8.3|
1,4,7.1|
2,0,0.28|
2,1,3.3|
2,3,3|
2,4,8.3|
3,0,5.1|
3,1,9.3|
3,2,5.1|
3,4,3.3|
4,0,8.8|
4,1,4|
4,2,1|
4,3,2|
];
constraint_x10_x8=[
0,1,4.6|
0,2,6|
0,3,5.5|
0,4,7|
1,0,8.2|
1,2,7.3|
1,3,7.3|
1,4,4.4|
2,0,7.2|
2,1,4.2|
2,3,3.4|
2,4,8.6|
3,0,5.2|
3,1,2|
3,2,8.5|
3,4,3.7|
4,0,8.7|
4,1,7.3|
4,2,1.9|
4,3,3.5|
];
constraint_x1_y1=[
0,0,1.5|
0,1,5.2|
0,2,7.9|
0,3,0.14|
0,4,8.2|
1,0,5.8|
1,1,2.9|
1,2,8.9|
1,3,3.6|
1,4,3.2|
2,0,7.2|
2,1,2.3|
2,2,3.5|
2,3,0.96|
2,4,5.1|
3,0,4.6|
3,1,4.1|
3,2,5.6|
3,3,2.4|
3,4,5.2|
4,0,6.8|
4,1,3.3|
4,2,2.7|
4,3,4.2|
4,4,6.3|
];
constraint_x2_y2=[
0,0,7.3|
0,1,9.1|
0,2,0.59|
0,3,7.9|
0,4,7.6|
1,0,3.5|
1,1,9.2|
1,2,5.4|
1,3,2.8|
1,4,7.6|
2,0,2.1|
2,1,7.5|
2,2,2.9|
2,3,4.2|
2,4,2|
3,0,7.8|
3,1,8.6|
3,2,7.3|
3,3,5.1|
3,4,1.2|
4,0,7.2|
4,1,2.9|
4,2,9.7|
4,3,6.2|
4,4,2|
];
constraint_x3_y3=[
0,0,4|
0,1,6.5|
0,2,4.4|
0,3,7|
0,4,7.8|
1,0,1.4|
1,1,0.29|
1,2,3.9|
1,3,7.7|
1,4,5.1|
2,0,6.2|
2,1,7|
2,2,9.2|
2,3,1.2|
2,4,2.6|
3,0,2.9|
3,1,2.5|
3,2,3.8|
3,3,1.9|
3,4,9.6|
4,0,6|
4,1,4.8|
4,2,5.2|
4,3,1.2|
4,4,2.2|
];
constraint_x4_y4=[
0,0,9.7|
0,1,0.4|
0,2,4.2|
0,3,3.6|
0,4,7.1|
1,0,5.1|
1,1,3.8|
1,2,2.2|
1,3,9|
1,4,3.4|
2,0,5.2|
2,1,1.6|
2,2,2|
2,3,9.7|
2,4,3.5|
3,0,2.3|
3,1,5.4|
3,2,4.8|
3,3,3.9|
3,4,4.2|
4,0,4.7|
4,1,0.85|
4,2,6.9|
4,3,1.2|
4,4,2.4|
];
constraint_x5_y5=[
0,0,3.3|
0,1,3.3|
0,2,4.6|
0,3,2.4|
0,4,5.6|
1,0,9.7|
1,1,0.46|
1,2,3.4|
1,3,0.17|
1,4,3.4|
2,0,3.1|
2,1,0.61|
2,2,6.6|
2,3,1.8|
2,4,3.1|
3,0,7.9|
3,1,3.2|
3,2,5.2|
3,3,7.4|
3,4,6.7|
4,0,8|
4,1,2.4|
4,2,4.6|
4,3,5.9|
4,4,0.55|
];
initial_distribution_y1=[0.13,0.25,0.25,0.18,0.19];
initial_distribution_y2=[0.22,0.21,0.14,0.41,0.022];
initial_distribution_y3=[0.013,0.18,0.29,0.35,0.17];
initial_distribution_y4=[0.12,0.36,0.25,0.22,0.042];
initial_distribution_y5=[0.15,0.22,0.21,0.25,0.16];
transition_y1=[
0.25,0.23,0.1,0.23,0.19|
0.046,0.27,0.25,0.25,0.18|
0.14,0.28,0.25,0.13,0.19|
0.26,0.072,0.13,0.26,0.28|
0.05,0.16,0.11,0.35,0.33|
];
transition_y2=[
0.16,0.26,0.42,0.047,0.12|
0.23,0.31,0.03,0.083,0.36|
0.13,0.11,0.073,0.19,0.5|
0.12,0.28,0.11,0.17,0.33|
0.17,0.2,0.26,0.16,0.2|
];
transition_y3=[
0.23,0.27,0.24,0.25,0.011|
0.042,0.39,0.15,0.31,0.11|
0.36,0.014,0.26,0.33,0.04|
0.18,0.36,0.28,0.091,0.094|
0.094,0.31,0.26,0.27,0.064|
];
transition_y4=[
0.39,0.063,0.18,0.11,0.26|
0.22,0.18,0.18,0.17,0.25|
0.31,0.15,0.15,0.33,0.062|
0.031,0.13,0.41,0.36,0.074|
0.022,0.42,0.087,0.39,0.086|
];
transition_y5=[
0.062,0.24,0.32,0.19,0.19|
0.026,0.14,0.26,0.31,0.26|
0.17,0.36,0.044,0.013,0.41|
0.1,0.32,0.2,0.31,0.063|
0.074,0.026,0.35,0.4,0.15|
];
